(set-info :source |printed by MathSAT|)
(declare-fun |!{$(in_main#0)<j>}| () Int)
(declare-fun |!{$(in_main#0)<j>}.next| () Int)
(declare-fun |!{$(in_main#0)<k>}| () Int)
(declare-fun |!{$(in_main#0)<k>}.next| () Int)
(declare-fun |!{$(in_main#0)<k#1>}| () Int)
(declare-fun |!{$(in_main#0)<k#1>}.next| () Int)
(declare-fun |!{$(in_main#0)<array.1>}| () (Array Int Int))
(declare-fun |!{$(in_main#0)<array.1>}.next| () (Array Int Int))
(declare-fun |!{$(in_main#0)<N>}| () Int)
(declare-fun |!{$(in_main#0)<N>}.next| () Int)
(declare-fun |!{$(in_main#0)<argmax>}| () Int)
(declare-fun |!{$(in_main#0)<argmax>}.next| () Int)
(declare-fun |!{$(in_main#0)<i>}| () Int)
(declare-fun |!{$(in_main#0)<i>}.next| () Int)
(declare-fun |!{$(in_main#0)<$(in___VERIFIER_nondet_int#0)<h#<__VERIFIER_nondet_int.return>>>}| () Int)
(declare-fun |!{$(in_main#0)<$(in___VERIFIER_nondet_int#2)<h#<__VERIFIER_nondet_int.return>>>}| () Int)
(declare-fun !pc () Int)
(declare-fun !pc.next () Int)
(declare-fun |%{$(in_main#0)<argmax>}#1| () Int)
(declare-fun |%{$(in_main#0)<i>}#1| () Int)
(declare-fun |%{$(in_main#0)<j>}#1| () Int)
(declare-fun |%{$(in_main#0)<k#1>}#1| () Int)
(declare-fun |%{$(in_main#0)<array.1>}#1| () (Array Int Int))
(declare-fun |%{$(in_main#0)<argmax>}#2| () Int)
(declare-fun |%{$(in_main#0)<argmax>}#4| () Int)
(define-fun .def_37 () Int (! !pc :next !pc.next))
(define-fun .def_40 () Bool (! (= .def_37 2) :init true))
(define-fun .def_240 () Bool (= .def_37 42))
(define-fun .def_208 () Bool (= !pc.next 64))
(define-fun .def_243 () Bool (and .def_208 .def_240))
(define-fun .def_237 () Bool (= |!{$(in_main#0)<i>}.next| 0))
(define-fun .def_235 () Bool (= |!{$(in_main#0)<argmax>}.next| 0))
(define-fun .def_16 () Int (! |!{$(in_main#0)<N>}| :next |!{$(in_main#0)<N>}.next|))
(define-fun .def_230 () Bool (= |!{$(in_main#0)<j>}.next| .def_16))
(define-fun .def_10 () Int (! |!{$(in_main#0)<k>}| :next |!{$(in_main#0)<k>}.next|))
(define-fun .def_90 () Bool (= .def_10 |!{$(in_main#0)<k>}.next|))
(define-fun .def_231 () Bool (and .def_90 .def_230))
(define-fun .def_12 () Int (! |!{$(in_main#0)<k#1>}| :next |!{$(in_main#0)<k#1>}.next|))
(define-fun .def_92 () Bool (= .def_12 |!{$(in_main#0)<k#1>}.next|))
(define-fun .def_232 () Bool (and .def_92 .def_231))
(define-fun .def_14 () (Array Int Int) (! |!{$(in_main#0)<array.1>}| :next |!{$(in_main#0)<array.1>}.next|))
(define-fun .def_94 () Bool (= .def_14 |!{$(in_main#0)<array.1>}.next|))
(define-fun .def_233 () Bool (and .def_94 .def_232))
(define-fun .def_96 () Bool (= .def_16 |!{$(in_main#0)<N>}.next|))
(define-fun .def_234 () Bool (and .def_96 .def_233))
(define-fun .def_236 () Bool (and .def_234 .def_235))
(define-fun .def_238 () Bool (and .def_236 .def_237))
(define-fun .def_215 () Bool (<= .def_16 .def_10))
(define-fun .def_239 () Bool (and .def_215 .def_238))
(define-fun .def_244 () Bool (and .def_239 .def_243))
(define-fun .def_74 () Bool (= !pc.next 42))
(define-fun .def_241 () Bool (and .def_74 .def_240))
(define-fun .def_217 () (Array Int Int) (store .def_14 .def_10 |!{$(in_main#0)<$(in___VERIFIER_nondet_int#2)<h#<__VERIFIER_nondet_int.return>>>}|))
(define-fun .def_224 () Bool (= |!{$(in_main#0)<array.1>}.next| .def_217))
(define-fun .def_219 () Int (* (- 1) |!{$(in_main#0)<k>}.next|))
(define-fun .def_220 () Int (+ .def_10 .def_219))
(define-fun .def_221 () Bool (= .def_220 (- 1)))
(define-fun .def_8 () Int (! |!{$(in_main#0)<j>}| :next |!{$(in_main#0)<j>}.next|))
(define-fun .def_88 () Bool (= .def_8 |!{$(in_main#0)<j>}.next|))
(define-fun .def_222 () Bool (and .def_88 .def_221))
(define-fun .def_223 () Bool (and .def_92 .def_222))
(define-fun .def_225 () Bool (and .def_223 .def_224))
(define-fun .def_226 () Bool (and .def_96 .def_225))
(define-fun .def_18 () Int (! |!{$(in_main#0)<argmax>}| :next |!{$(in_main#0)<argmax>}.next|))
(define-fun .def_98 () Bool (= .def_18 |!{$(in_main#0)<argmax>}.next|))
(define-fun .def_227 () Bool (and .def_98 .def_226))
(define-fun .def_20 () Int (! |!{$(in_main#0)<i>}| :next |!{$(in_main#0)<i>}.next|))
(define-fun .def_100 () Bool (= .def_20 |!{$(in_main#0)<i>}.next|))
(define-fun .def_228 () Bool (and .def_100 .def_227))
(define-fun .def_216 () Bool (not .def_215))
(define-fun .def_229 () Bool (and .def_216 .def_228))
(define-fun .def_242 () Bool (and .def_229 .def_241))
(define-fun .def_245 () Bool (or .def_242 .def_244))
(define-fun .def_207 () Bool (= .def_37 64))
(define-fun .def_128 () Bool (= !pc.next 100))
(define-fun .def_211 () Bool (and .def_128 .def_207))
(define-fun .def_199 () Bool (= |!{$(in_main#0)<k#1>}.next| 0))
(define-fun .def_103 () Bool (and .def_88 .def_90))
(define-fun .def_200 () Bool (and .def_103 .def_199))
(define-fun .def_201 () Bool (and .def_94 .def_200))
(define-fun .def_202 () Bool (and .def_96 .def_201))
(define-fun .def_203 () Bool (and .def_98 .def_202))
(define-fun .def_204 () Bool (and .def_100 .def_203))
(define-fun .def_144 () Bool (<= .def_20 .def_8))
(define-fun .def_141 () Bool (<= .def_8 0))
(define-fun .def_142 () Bool (not .def_141))
(define-fun .def_139 () Bool (<= .def_16 .def_20))
(define-fun .def_140 () Bool (not .def_139))
(define-fun .def_143 () Bool (and .def_140 .def_142))
(define-fun .def_145 () Bool (and .def_143 .def_144))
(define-fun .def_182 () Bool (not .def_145))
(define-fun .def_205 () Bool (and .def_182 .def_204))
(define-fun .def_212 () Bool (and .def_205 .def_211))
(define-fun .def_209 () Bool (and .def_207 .def_208))
(define-fun .def_192 () Int (* (- 1) |!{$(in_main#0)<i>}.next|))
(define-fun .def_193 () Int (+ .def_20 .def_192))
(define-fun .def_194 () Bool (= .def_193 (- 1)))
(define-fun .def_190 () Bool (= |!{$(in_main#0)<argmax>}.next| |%{$(in_main#0)<argmax>}#4|))
(define-fun .def_183 () Int (* (- 1) |!{$(in_main#0)<j>}.next|))
(define-fun .def_184 () Int (+ .def_8 .def_183))
(define-fun .def_185 () Bool (= .def_184 1))
(define-fun .def_186 () Bool (and .def_90 .def_185))
(define-fun .def_187 () Bool (and .def_92 .def_186))
(define-fun .def_188 () Bool (and .def_94 .def_187))
(define-fun .def_189 () Bool (and .def_96 .def_188))
(define-fun .def_191 () Bool (and .def_189 .def_190))
(define-fun .def_195 () Bool (and .def_191 .def_194))
(define-fun .def_173 () Int (* (- 1) |%{$(in_main#0)<argmax>}#4|))
(define-fun .def_174 () Int (+ .def_8 .def_173))
(define-fun .def_175 () Bool (= .def_174 1))
(define-fun .def_159 () Int (select .def_14 |%{$(in_main#0)<argmax>}#2|))
(define-fun .def_160 () Int (+ .def_8 (- 1)))
(define-fun .def_161 () Int (select .def_14 .def_160))
(define-fun .def_162 () Bool (<= .def_161 .def_159))
(define-fun .def_163 () Bool (not .def_162))
(define-fun .def_177 () Bool (and .def_163 .def_175))
(define-fun .def_172 () Bool (= |%{$(in_main#0)<argmax>}#2| |%{$(in_main#0)<argmax>}#4|))
(define-fun .def_176 () Bool (and .def_162 .def_172))
(define-fun .def_178 () Bool (or .def_176 .def_177))
(define-fun .def_196 () Bool (and .def_178 .def_195))
(define-fun .def_154 () Bool (= .def_20 |%{$(in_main#0)<argmax>}#2|))
(define-fun .def_80 () Int (select .def_14 .def_18))
(define-fun .def_146 () Int (select .def_14 .def_20))
(define-fun .def_147 () Bool (<= .def_146 .def_80))
(define-fun .def_148 () Bool (not .def_147))
(define-fun .def_156 () Bool (and .def_148 .def_154))
(define-fun .def_153 () Bool (= .def_18 |%{$(in_main#0)<argmax>}#2|))
(define-fun .def_155 () Bool (and .def_147 .def_153))
(define-fun .def_157 () Bool (or .def_155 .def_156))
(define-fun .def_197 () Bool (and .def_157 .def_196))
(define-fun .def_198 () Bool (and .def_145 .def_197))
(define-fun .def_210 () Bool (and .def_198 .def_209))
(define-fun .def_213 () Bool (or .def_210 .def_212))
(define-fun .def_132 () Bool (= !pc.next 0))
(define-fun .def_123 () Bool (= .def_37 100))
(define-fun .def_133 () Bool (and .def_123 .def_132))
(define-fun .def_77 () Bool (<= .def_16 .def_12))
(define-fun .def_115 () Bool (and .def_77 .def_88))
(define-fun .def_116 () Bool (and .def_90 .def_115))
(define-fun .def_117 () Bool (and .def_92 .def_116))
(define-fun .def_118 () Bool (and .def_94 .def_117))
(define-fun .def_119 () Bool (and .def_96 .def_118))
(define-fun .def_120 () Bool (and .def_98 .def_119))
(define-fun .def_121 () Bool (and .def_100 .def_120))
(define-fun .def_134 () Bool (and .def_121 .def_133))
(define-fun .def_129 () Bool (and .def_123 .def_128))
(define-fun .def_105 () Int (* (- 1) |!{$(in_main#0)<k#1>}.next|))
(define-fun .def_106 () Int (+ .def_12 .def_105))
(define-fun .def_107 () Bool (= .def_106 (- 1)))
(define-fun .def_108 () Bool (and .def_103 .def_107))
(define-fun .def_109 () Bool (and .def_94 .def_108))
(define-fun .def_110 () Bool (and .def_96 .def_109))
(define-fun .def_111 () Bool (and .def_98 .def_110))
(define-fun .def_112 () Bool (and .def_100 .def_111))
(define-fun .def_79 () Int (select .def_14 .def_12))
(define-fun .def_81 () Bool (<= .def_79 .def_80))
(define-fun .def_82 () Int (ite .def_81 1 0))
(define-fun .def_83 () Bool (= .def_82 0))
(define-fun .def_84 () Bool (not .def_83))
(define-fun .def_113 () Bool (and .def_84 .def_112))
(define-fun .def_78 () Bool (not .def_77))
(define-fun .def_114 () Bool (and .def_78 .def_113))
(define-fun .def_130 () Bool (and .def_114 .def_129))
(define-fun .def_125 () Bool (= !pc.next 120))
(define-fun .def_126 () Bool (and .def_123 .def_125))
(define-fun .def_89 () Bool (and .def_83 .def_88))
(define-fun .def_91 () Bool (and .def_89 .def_90))
(define-fun .def_93 () Bool (and .def_91 .def_92))
(define-fun .def_95 () Bool (and .def_93 .def_94))
(define-fun .def_97 () Bool (and .def_95 .def_96))
(define-fun .def_99 () Bool (and .def_97 .def_98))
(define-fun .def_101 () Bool (and .def_99 .def_100))
(define-fun .def_102 () Bool (and .def_78 .def_101))
(define-fun .def_127 () Bool (and .def_102 .def_126))
(define-fun .def_131 () Bool (or .def_127 .def_130))
(define-fun .def_135 () Bool (or .def_131 .def_134))
(define-fun .def_75 () Bool (and .def_40 .def_74))
(define-fun .def_70 () Bool (= |!{$(in_main#0)<i>}.next| |%{$(in_main#0)<i>}#1|))
(define-fun .def_68 () Bool (= |!{$(in_main#0)<argmax>}.next| |%{$(in_main#0)<argmax>}#1|))
(define-fun .def_66 () Bool (= |!{$(in_main#0)<N>}.next| |!{$(in_main#0)<$(in___VERIFIER_nondet_int#0)<h#<__VERIFIER_nondet_int.return>>>}|))
(define-fun .def_64 () Bool (= |!{$(in_main#0)<array.1>}.next| |%{$(in_main#0)<array.1>}#1|))
(define-fun .def_62 () Bool (= |!{$(in_main#0)<k#1>}.next| |%{$(in_main#0)<k#1>}#1|))
(define-fun .def_60 () Bool (= |!{$(in_main#0)<k>}.next| 0))
(define-fun .def_59 () Bool (= |!{$(in_main#0)<j>}.next| |%{$(in_main#0)<j>}#1|))
(define-fun .def_61 () Bool (and .def_59 .def_60))
(define-fun .def_63 () Bool (and .def_61 .def_62))
(define-fun .def_65 () Bool (and .def_63 .def_64))
(define-fun .def_67 () Bool (and .def_65 .def_66))
(define-fun .def_69 () Bool (and .def_67 .def_68))
(define-fun .def_71 () Bool (and .def_69 .def_70))
(define-fun .def_54 () Bool (<= |!{$(in_main#0)<$(in___VERIFIER_nondet_int#0)<h#<__VERIFIER_nondet_int.return>>>}| 0))
(define-fun .def_55 () Bool (not .def_54))
(define-fun .def_56 () Int (ite .def_55 1 0))
(define-fun .def_57 () Bool (= .def_56 0))
(define-fun .def_58 () Bool (not .def_57))
(define-fun .def_72 () Bool (and .def_58 .def_71))
(define-fun .def_76 () Bool (and .def_72 .def_75))
(define-fun .def_136 () Bool (or .def_76 .def_135))
(define-fun .def_214 () Bool (or .def_136 .def_213))
(define-fun .def_246 () Bool (! (or .def_214 .def_245) :trans true))
(define-fun .def_137 () Bool (= .def_37 120))
(define-fun .def_247 () Bool (! (not .def_137) :invar-property 0 :invar-property-name ||))
(assert true)
